154798 122 603779 13488415 177176 0.96
155744 141 697810 15604173 176982 0.96
154862 104 514697 11624141 175558 0.98
155702 94 465207 10341547 178624 0.99
153944 121 598830 13434727 176812 0.98
154250 110 544391 12240755 178914 0.95
154198 131 648320 14582218 178850 0.97
154488 131 648320 14566633 179416 0.98
155306 132 653269 14554524 179868 0.99
154778 117 579034 12902644 177576 0.99
